Execution  1  -  file=d10.stp
trivial
Nodos Incluidos na Solution: 
480 965 397 880 505 445 270 238 898 937 597 604 189 559 77 511 710 386 258 872 792 154 13 686 11 738 87 366 689 305 45 268 191 55 673 245 777 107 657 690 271 854 349 317 351 491 805 217 581 113 926 542 891 930 235 681 197 572 265 645 323 188 908 955 827 16 711 535 700 51 863 520 575 561 615 640 134 33 879 466 767 336 510 401 607 832 636 864 468 626 590 494 769 599 292 948 766 759 815 579 506 981 158 414 752 656 576 181 222 582 213 729 180 454 841 114 385 450 4 157 985 987 361 859 662 294 419 314 543 483 890 75 146 713 623 168 917 676 760 737 410 962 350 839 479 538 196 889 257 175 151 52 178 994 761 995 545 274 447 663 57 892 182 394 691 704 206 884 463 925 476 356 149 784 613 566 326 406 86 539 914 939 136 135 240 611 275 319 960 951 313 982 993 763 499 219 591 365 687 79 715 851 893 786 40 312 867 558 649 254 462 97 259 315 692 646 452 751 296 210 637 808 334 148 324 141 966 98 874 932 512 952 694 564 598 998 788 931 56 670 457 320 550 838 972 765 672 644 497 831 190 731 152 187 176 186 140 557 9 552 899 521 174 34 772 278 610 400 726 721 942 563 267 828 824 660 618 720 659 753 83 167 1000 490 376 214 398 873 913 91 485 232 71 27 785 19 509 540 212 885 583 840 70 651 764 799 48 868 736 169 716 901 355 225 220 430 458 44 946 156 221 327 708 223 814 569 287 531 252 553 236 104 421 577 416 834 934 427 321 26 68 580 291 797 822 678 331 567 522 568 309 684 666 345 643 781 211 842 548 964 179 621 422 515 573 701 801 732 20 242 379 106 698 928 121 209 813 984 601 405 896 900 492 989 935 674 693 983 368 555 125 530 734 201 498 316 122 22 905 635 793 533 163 333 244 836 439 861 878 848 204 883 974 912 130 269 856 460 38 807 449 496 474 843 906 911 837 747 29 714 915 441 66 641 992 730 980 246 768 773 749 28 276 845 986 703 7 669 682 41 25 247 311 991 373 322 436 60 464 602 80 15 758 685 818 620 99 779 442 61 830 94 403 648 741 6 725 218 858 78 829 370 415 936 954 233 100 775 631 502 478 888 35 585 549 560 340 516 957 318 835 947 31 812 735 664 847 465 433 371 755 407 744 198 289 453 456 384 802 608 958 110 547 250 459 524 750 85 823 353 54 37 286 226 754 541 482 904 395 709 941 428 776 929 444 120 216 325 477 328 237 62 108 277 170 757 300 231 944 417 288 424 816 609 999 916 921 571 153 923 897 109 500 971 138 224 950 595 402 147 996 263 343 789 795 139 124 586 695 471 969 243 712 21 526 562 367 967 961 940 688 853 432 295 849 919 200 791 518 594 127 74 855 629 596 329 363 102 652 1 903 448 166 544 335 803 302 119 680 8 96 330 437 554 352 493 959 628 332 408 990 809 963 192 513 866 173 696 249 202 143 49 337 653 978 171 804 72 251 215 871 262 667 617 642 443 895 364 507 5 88 756 850 733 164 299 481 728 81 342 389 440 112 467 627 255 603 619 924 63 625 844 128 411 927 404 391 639 193 241 413 495 14 819 239 396 970 145 647 126 724 977 381 489 354 943 624 256 369 161 949 39 261 675 165 739 546 150 655 229 429 671 723 976 881 377 90 746 382 869 372 857 488 633 67 574 875 177 451 285 668 59 69 683 32 248 17 360 123 600 307 503 375 953 306 234 762 378 118 719 612 117 115 821 532 722 876 973 64 718 658 344 945 907 205 36 50 909 717 280 159 455 423 290 95 103 387 665 933 393 588 979 780 132 230 638 833 820 43 348 473 266 208 160 475 630 362 89 514 434 10 699 501 826 534 882 472 938 228 508 770 308 810 679 12 438 347 790 589 142 677 131 425 504 298 2 817 551 58 73 525 105 297 778 253 527 284 461 341 616 23 528 392 446 988 53 794 374 910 922 782 865 887 787 956 279 359 783 825 227 144 357 743 380 774 650 614 593 194 282 101 894 388 273 172 264 137 920 556 310 634 860 129 745 47 852 195 418 431 798 862 46 565 975 412 399 918 283 529 748 76 968 183 661 796 3 470 487 184 304 800 705 632 358 24 30 420 811 207 702 260 517 886 435 84 199 484 390 93 806 293 486 42 185 536 339 697 706 82 116 877 606 742 346 303 622 771 203 654 740 519 409 537 727 301 383 846 578 469 587 902 92 133 584 426 162 18 338 272 707 281 523 65 155 111 870 592 570 997 605 

Inicial - Avaliacao = 5512

0 -- startSolution: 5512 optimum: 5512
0 -- startSolution: 5502 optimum: 5502
0 -- startSolution: 5492 optimum: 5492
0 -- startSolution: 5482 optimum: 5482
0 -- startSolution: 5472 optimum: 5472
0 -- startSolution: 5462 optimum: 5462
0 -- startSolution: 5452 optimum: 5452
0 -- startSolution: 5442 optimum: 5442
0 -- startSolution: 5432 optimum: 5432
0 -- startSolution: 5422 optimum: 5422
0 -- startSolution: 5412 optimum: 5412
0 -- startSolution: 5402 optimum: 5402
0 -- startSolution: 5392 optimum: 5392
0 -- startSolution: 5382 optimum: 5382
0 -- startSolution: 5372 optimum: 5372
0 -- startSolution: 5362 optimum: 5362
0 -- startSolution: 5352 optimum: 5352
0 -- startSolution: 5342 optimum: 5342
0 -- startSolution: 5332 optimum: 5332
0 -- startSolution: 5322 optimum: 5322
0 -- startSolution: 5313 optimum: 5313
0 -- startSolution: 5303 optimum: 5303
0 -- startSolution: 5294 optimum: 5294
0 -- startSolution: 5284 optimum: 5284
0 -- startSolution: 5274 optimum: 5274
0 -- startSolution: 5264 optimum: 5264
0 -- startSolution: 5254 optimum: 5254
0 -- startSolution: 5244 optimum: 5244
0 -- startSolution: 5234 optimum: 5234
0 -- startSolution: 5224 optimum: 5224
0 -- startSolution: 5214 optimum: 5214
0 -- startSolution: 5204 optimum: 5204
0 -- startSolution: 5195 optimum: 5195
0 -- startSolution: 5185 optimum: 5185
0 -- startSolution: 5176 optimum: 5176
0 -- startSolution: 5166 optimum: 5166
0 -- startSolution: 5157 optimum: 5157
0 -- startSolution: 5147 optimum: 5147
0 -- startSolution: 5138 optimum: 5138
0 -- startSolution: 5128 optimum: 5128
0 -- startSolution: 5119 optimum: 5119
0 -- startSolution: 5110 optimum: 5110
0 -- startSolution: 5101 optimum: 5101
0 -- startSolution: 5092 optimum: 5092
0 -- startSolution: 5082 optimum: 5082
0 -- startSolution: 5073 optimum: 5073
0 -- startSolution: 5064 optimum: 5064
0 -- startSolution: 5054 optimum: 5054
0 -- startSolution: 5045 optimum: 5045
0 -- startSolution: 5036 optimum: 5036
0 -- startSolution: 5027 optimum: 5027
0 -- startSolution: 5018 optimum: 5018
0 -- startSolution: 5010 optimum: 5010
0 -- startSolution: 5001 optimum: 5001
0 -- startSolution: 4992 optimum: 4992
0 -- startSolution: 4983 optimum: 4983
0 -- startSolution: 4974 optimum: 4974
0 -- startSolution: 4965 optimum: 4965
0 -- startSolution: 4956 optimum: 4956
0 -- startSolution: 4947 optimum: 4947
0 -- startSolution: 4938 optimum: 4938
0 -- startSolution: 4929 optimum: 4929
0 -- startSolution: 4921 optimum: 4921
0 -- startSolution: 4912 optimum: 4912
0 -- startSolution: 4903 optimum: 4903
0 -- startSolution: 4894 optimum: 4894
0 -- startSolution: 4886 optimum: 4886
0 -- startSolution: 4877 optimum: 4877
0 -- startSolution: 4868 optimum: 4868
0 -- startSolution: 4859 optimum: 4859
0 -- startSolution: 4850 optimum: 4850
0 -- startSolution: 4842 optimum: 4842
0 -- startSolution: 4834 optimum: 4834
0 -- startSolution: 4825 optimum: 4825
0 -- startSolution: 4816 optimum: 4816
0 -- startSolution: 4808 optimum: 4808
0 -- startSolution: 4799 optimum: 4799
0 -- startSolution: 4790 optimum: 4790
0 -- startSolution: 4781 optimum: 4781
0 -- startSolution: 4772 optimum: 4772
0 -- startSolution: 4764 optimum: 4764
0 -- startSolution: 4756 optimum: 4756
0 -- startSolution: 4748 optimum: 4748
0 -- startSolution: 4739 optimum: 4739
0 -- startSolution: 4730 optimum: 4730
0 -- startSolution: 4722 optimum: 4722
0 -- startSolution: 4713 optimum: 4713
0 -- startSolution: 4705 optimum: 4705
0 -- startSolution: 4697 optimum: 4697
0 -- startSolution: 4688 optimum: 4688
0 -- startSolution: 4679 optimum: 4679
0 -- startSolution: 4671 optimum: 4671
0 -- startSolution: 4662 optimum: 4662
0 -- startSolution: 4654 optimum: 4654
0 -- startSolution: 4645 optimum: 4645
0 -- startSolution: 4637 optimum: 4637
0 -- startSolution: 4628 optimum: 4628
0 -- startSolution: 4620 optimum: 4620
0 -- startSolution: 4613 optimum: 4613
0 -- startSolution: 4604 optimum: 4604
0 -- startSolution: 4596 optimum: 4596
0 -- startSolution: 4589 optimum: 4589
0 -- startSolution: 4582 optimum: 4582
0 -- startSolution: 4574 optimum: 4574
0 -- startSolution: 4565 optimum: 4565
0 -- startSolution: 4557 optimum: 4557
0 -- startSolution: 4549 optimum: 4549
0 -- startSolution: 4541 optimum: 4541
0 -- startSolution: 4533 optimum: 4533
0 -- startSolution: 4525 optimum: 4525
0 -- startSolution: 4517 optimum: 4517
0 -- startSolution: 4510 optimum: 4510
0 -- startSolution: 4502 optimum: 4502
0 -- startSolution: 4494 optimum: 4494
0 -- startSolution: 4486 optimum: 4486
0 -- startSolution: 4477 optimum: 4477
0 -- startSolution: 4469 optimum: 4469
0 -- startSolution: 4461 optimum: 4461
0 -- startSolution: 4453 optimum: 4453
0 -- startSolution: 4444 optimum: 4444
0 -- startSolution: 4436 optimum: 4436
0 -- startSolution: 4428 optimum: 4428
0 -- startSolution: 4420 optimum: 4420
0 -- startSolution: 4412 optimum: 4412
0 -- startSolution: 4403 optimum: 4403
0 -- startSolution: 4395 optimum: 4395
0 -- startSolution: 4387 optimum: 4387
0 -- startSolution: 4378 optimum: 4378
0 -- startSolution: 4370 optimum: 4370
0 -- startSolution: 4362 optimum: 4362
0 -- startSolution: 4355 optimum: 4355
0 -- startSolution: 4347 optimum: 4347
0 -- startSolution: 4338 optimum: 4338
0 -- startSolution: 4330 optimum: 4330
0 -- startSolution: 4322 optimum: 4322
0 -- startSolution: 4313 optimum: 4313
0 -- startSolution: 4306 optimum: 4306
0 -- startSolution: 4297 optimum: 4297
0 -- startSolution: 4290 optimum: 4290
0 -- startSolution: 4283 optimum: 4283
0 -- startSolution: 4276 optimum: 4276
0 -- startSolution: 4269 optimum: 4269
0 -- startSolution: 4261 optimum: 4261
0 -- startSolution: 4254 optimum: 4254
0 -- startSolution: 4245 optimum: 4245
0 -- startSolution: 4238 optimum: 4238
0 -- startSolution: 4231 optimum: 4231
0 -- startSolution: 4223 optimum: 4223
0 -- startSolution: 4215 optimum: 4215
0 -- startSolution: 4207 optimum: 4207
0 -- startSolution: 4199 optimum: 4199
0 -- startSolution: 4192 optimum: 4192
0 -- startSolution: 4185 optimum: 4185
0 -- startSolution: 4178 optimum: 4178
0 -- startSolution: 4171 optimum: 4171
0 -- startSolution: 4163 optimum: 4163
0 -- startSolution: 4156 optimum: 4156
0 -- startSolution: 4148 optimum: 4148
0 -- startSolution: 4140 optimum: 4140
0 -- startSolution: 4132 optimum: 4132
0 -- startSolution: 4124 optimum: 4124
0 -- startSolution: 4117 optimum: 4117
0 -- startSolution: 4110 optimum: 4110
0 -- startSolution: 4103 optimum: 4103
0 -- startSolution: 4096 optimum: 4096
0 -- startSolution: 4089 optimum: 4089
0 -- startSolution: 4081 optimum: 4081
0 -- startSolution: 4074 optimum: 4074
0 -- startSolution: 4067 optimum: 4067
0 -- startSolution: 4060 optimum: 4060
0 -- startSolution: 4053 optimum: 4053
0 -- startSolution: 4046 optimum: 4046
0 -- startSolution: 4039 optimum: 4039
0 -- startSolution: 4032 optimum: 4032
0 -- startSolution: 4025 optimum: 4025
0 -- startSolution: 4017 optimum: 4017
0 -- startSolution: 4011 optimum: 4011
0 -- startSolution: 4004 optimum: 4004
0 -- startSolution: 3996 optimum: 3996
0 -- startSolution: 3989 optimum: 3989
0 -- startSolution: 3982 optimum: 3982
0 -- startSolution: 3976 optimum: 3976
0 -- startSolution: 3969 optimum: 3969
0 -- startSolution: 3961 optimum: 3961
0 -- startSolution: 3954 optimum: 3954
0 -- startSolution: 3946 optimum: 3946
0 -- startSolution: 3939 optimum: 3939
0 -- startSolution: 3933 optimum: 3933
0 -- startSolution: 3927 optimum: 3927
0 -- startSolution: 3920 optimum: 3920
0 -- startSolution: 3913 optimum: 3913
0 -- startSolution: 3907 optimum: 3907
0 -- startSolution: 3901 optimum: 3901
0 -- startSolution: 3894 optimum: 3894
0 -- startSolution: 3887 optimum: 3887
0 -- startSolution: 3880 optimum: 3880
0 -- startSolution: 3873 optimum: 3873
0 -- startSolution: 3867 optimum: 3867
0 -- startSolution: 3861 optimum: 3861
0 -- startSolution: 3855 optimum: 3855
0 -- startSolution: 3848 optimum: 3848
0 -- startSolution: 3841 optimum: 3841
0 -- startSolution: 3834 optimum: 3834
0 -- startSolution: 3827 optimum: 3827
0 -- startSolution: 3820 optimum: 3820
0 -- startSolution: 3813 optimum: 3813
0 -- startSolution: 3806 optimum: 3806
0 -- startSolution: 3799 optimum: 3799
0 -- startSolution: 3793 optimum: 3793
0 -- startSolution: 3787 optimum: 3787
0 -- startSolution: 3780 optimum: 3780
0 -- startSolution: 3774 optimum: 3774
0 -- startSolution: 3768 optimum: 3768
0 -- startSolution: 3761 optimum: 3761
0 -- startSolution: 3756 optimum: 3756
0 -- startSolution: 3750 optimum: 3750
0 -- startSolution: 3744 optimum: 3744
0 -- startSolution: 3737 optimum: 3737
0 -- startSolution: 3731 optimum: 3731
0 -- startSolution: 3725 optimum: 3725
0 -- startSolution: 3719 optimum: 3719
0 -- startSolution: 3713 optimum: 3713
0 -- startSolution: 3708 optimum: 3708
0 -- startSolution: 3700 optimum: 3700
0 -- startSolution: 3694 optimum: 3694
0 -- startSolution: 3687 optimum: 3687
0 -- startSolution: 3680 optimum: 3680
0 -- startSolution: 3675 optimum: 3675
0 -- startSolution: 3667 optimum: 3667
0 -- startSolution: 3660 optimum: 3660
0 -- startSolution: 3653 optimum: 3653
0 -- startSolution: 3648 optimum: 3648
0 -- startSolution: 3642 optimum: 3642
0 -- startSolution: 3633 optimum: 3633
0 -- startSolution: 3626 optimum: 3626
0 -- startSolution: 3620 optimum: 3620
0 -- startSolution: 3612 optimum: 3612
0 -- startSolution: 3605 optimum: 3605
0 -- startSolution: 3599 optimum: 3599
0 -- startSolution: 3592 optimum: 3592
0 -- startSolution: 3587 optimum: 3587
0 -- startSolution: 3579 optimum: 3579
0 -- startSolution: 3573 optimum: 3573
0 -- startSolution: 3566 optimum: 3566
0 -- startSolution: 3559 optimum: 3559
0 -- startSolution: 3553 optimum: 3553
0 -- startSolution: 3547 optimum: 3547
0 -- startSolution: 3541 optimum: 3541
0 -- startSolution: 3535 optimum: 3535
0 -- startSolution: 3529 optimum: 3529
0 -- startSolution: 3523 optimum: 3523
0 -- startSolution: 3517 optimum: 3517
0 -- startSolution: 3511 optimum: 3511
0 -- startSolution: 3506 optimum: 3506
0 -- startSolution: 3500 optimum: 3500
0 -- startSolution: 3495 optimum: 3495
0 -- startSolution: 3489 optimum: 3489
0 -- startSolution: 3483 optimum: 3483
0 -- startSolution: 3478 optimum: 3478
0 -- startSolution: 3472 optimum: 3472
0 -- startSolution: 3467 optimum: 3467
0 -- startSolution: 3462 optimum: 3462
0 -- startSolution: 3456 optimum: 3456
0 -- startSolution: 3450 optimum: 3450
0 -- startSolution: 3445 optimum: 3445
0 -- startSolution: 3440 optimum: 3440
0 -- startSolution: 3435 optimum: 3435
0 -- startSolution: 3429 optimum: 3429
0 -- startSolution: 3423 optimum: 3423
0 -- startSolution: 3417 optimum: 3417
0 -- startSolution: 3409 optimum: 3409
0 -- startSolution: 3403 optimum: 3403
0 -- startSolution: 3397 optimum: 3397
0 -- startSolution: 3391 optimum: 3391
0 -- startSolution: 3385 optimum: 3385
0 -- startSolution: 3379 optimum: 3379
0 -- startSolution: 3374 optimum: 3374
0 -- startSolution: 3369 optimum: 3369
0 -- startSolution: 3364 optimum: 3364
0 -- startSolution: 3358 optimum: 3358
0 -- startSolution: 3353 optimum: 3353
0 -- startSolution: 3348 optimum: 3348
0 -- startSolution: 3342 optimum: 3342
0 -- startSolution: 3337 optimum: 3337
0 -- startSolution: 3332 optimum: 3332
0 -- startSolution: 3326 optimum: 3326
0 -- startSolution: 3320 optimum: 3320
0 -- startSolution: 3314 optimum: 3314
0 -- startSolution: 3309 optimum: 3309
0 -- startSolution: 3304 optimum: 3304
0 -- startSolution: 3298 optimum: 3298
0 -- startSolution: 3291 optimum: 3291
0 -- startSolution: 3285 optimum: 3285
0 -- startSolution: 3280 optimum: 3280
0 -- startSolution: 3274 optimum: 3274
0 -- startSolution: 3269 optimum: 3269
0 -- startSolution: 3263 optimum: 3263
0 -- startSolution: 3259 optimum: 3259
0 -- startSolution: 3254 optimum: 3254
0 -- startSolution: 3250 optimum: 3250
0 -- startSolution: 3245 optimum: 3245
0 -- startSolution: 3240 optimum: 3240
0 -- startSolution: 3235 optimum: 3235
0 -- startSolution: 3231 optimum: 3231
0 -- startSolution: 3226 optimum: 3226
0 -- startSolution: 3220 optimum: 3220
0 -- startSolution: 3215 optimum: 3215
0 -- startSolution: 3211 optimum: 3211
0 -- startSolution: 3206 optimum: 3206
0 -- startSolution: 3200 optimum: 3200
0 -- startSolution: 3196 optimum: 3196
0 -- startSolution: 3190 optimum: 3190
0 -- startSolution: 3185 optimum: 3185
0 -- startSolution: 3181 optimum: 3181
0 -- startSolution: 3175 optimum: 3175
0 -- startSolution: 3170 optimum: 3170
0 -- startSolution: 3166 optimum: 3166
0 -- startSolution: 3160 optimum: 3160
0 -- startSolution: 3155 optimum: 3155
0 -- startSolution: 3151 optimum: 3151
0 -- startSolution: 3146 optimum: 3146
0 -- startSolution: 3139 optimum: 3139
0 -- startSolution: 3135 optimum: 3135
0 -- startSolution: 3131 optimum: 3131
0 -- startSolution: 3127 optimum: 3127
0 -- startSolution: 3122 optimum: 3122
0 -- startSolution: 3117 optimum: 3117
0 -- startSolution: 3112 optimum: 3112
0 -- startSolution: 3105 optimum: 3105
0 -- startSolution: 3099 optimum: 3099
0 -- startSolution: 3095 optimum: 3095
0 -- startSolution: 3091 optimum: 3091
0 -- startSolution: 3087 optimum: 3087
0 -- startSolution: 3083 optimum: 3083
0 -- startSolution: 3079 optimum: 3079
0 -- startSolution: 3074 optimum: 3074
0 -- startSolution: 3069 optimum: 3069
